NAME: cuum590.tsp
TYPE: TSP
COMMENT: User-generated TSP file
DIMENSION: 590
EDGE_WEIGHT_TYPE: EUC_2D
NODE_COORD_SECTION
1 186.0 450.0
2 276.0 269.0
3 37.0 144.0
4 260.0 280.0
5 446.0 185.0
6 529.0 367.0
7 546.0 385.0
8 540.0 405.0
9 536.0 49.0
10 556.0 261.0
11 250.0 169.0
12 143.0 490.0
13 525.0 365.0
14 194.0 480.0
15 204.0 328.0
16 116.0 282.0
17 429.0 359.0
18 244.0 436.0
19 63.0 303.0
20 314.0 520.0
21 134.0 135.0
22 226.0 487.0
23 384.0 64.0
24 498.0 212.0
25 15.0 219.0
26 291.0 366.0
27 279.0 523.0
28 303.0 37.0
29 539.0 233.0
30 407.0 48.0
31 403.0 476.0
32 226.0 70.0
33 549.0 330.0
34 507.0 162.0
35 575.0 351.0
36 287.0 210.0
37 103.0 27.0
38 14.0 228.0
39 333.0 320.0
40 78.0 205.0
41 258.0 361.0
42 488.0 498.0
43 38.0 577.0
44 68.0 304.0
45 406.0 216.0
46 102.0 377.0
47 87.0 422.0
48 7.0 248.0
49 352.0 546.0
50 506.0 160.0
51 420.0 124.0
52 161.0 447.0
53 258.0 158.0
54 144.0 442.0
55 492.0 316.0
56 365.0 493.0
57 507.0 323.0
58 247.0 366.0
59 439.0 458.0
60 183.0 286.0
61 94.0 525.0
62 346.0 158.0
63 587.0 456.0
64 153.0 444.0
65 220.0 398.0
66 96.0 229.0
67 368.0 155.0
68 58.0 562.0
69 369.0 229.0
70 341.0 207.0
71 584.0 250.0
72 119.0 206.0
73 390.0 465.0
74 364.0 521.0
75 204.0 166.0
76 41.0 501.0
77 358.0 537.0
78 583.0 446.0
79 480.0 588.0
80 238.0 173.0
81 273.0 510.0
82 251.0 480.0
83 201.0 390.0
84 326.0 215.0
85 474.0 507.0
86 353.0 501.0
87 219.0 234.0
88 363.0 194.0
89 492.0 155.0
90 557.0 330.0
91 515.0 445.0
92 536.0 266.0
93 389.0 392.0
94 80.0 202.0
95 366.0 263.0
96 44.0 277.0
97 167.0 98.0
98 228.0 558.0
99 423.0 298.0
100 407.0 121.0
101 278.0 249.0
102 445.0 58.0
103 204.0 309.0
104 317.0 250.0
105 46.0 507.0
106 83.0 411.0
107 481.0 286.0
108 55.0 146.0
109 536.0 75.0
110 229.0 167.0
111 535.0 325.0
112 59.0 413.0
113 518.0 542.0
114 523.0 364.0
115 535.0 236.0
116 553.0 582.0
117 251.0 288.0
118 11.0 569.0
119 193.0 484.0
120 139.0 99.0
121 339.0 397.0
122 255.0 388.0
123 535.0 183.0
124 418.0 491.0
125 365.0 201.0
126 388.0 306.0
127 445.0 15.0
128 435.0 347.0
129 49.0 257.0
130 565.0 510.0
131 292.0 215.0
132 581.0 111.0
133 583.0 322.0
134 242.0 530.0
135 419.0 174.0
136 486.0 136.0
137 479.0 201.0
138 315.0 442.0
139 285.0 469.0
140 70.0 247.0
141 281.0 154.0
142 411.0 395.0
143 134.0 169.0
144 170.0 219.0
145 45.0 64.0
146 546.0 92.0
147 489.0 334.0
148 123.0 439.0
149 523.0 418.0
150 137.0 424.0
151 571.0 189.0
152 91.0 305.0
153 68.0 354.0
154 101.0 333.0
155 405.0 199.0
156 482.0 32.0
157 5.0 340.0
158 551.0 7.0
159 322.0 543.0
160 512.0 567.0
161 390.0 157.0
162 485.0 326.0
163 557.0 3.0
164 217.0 127.0
165 213.0 206.0
166 131.0 88.0
167 380.0 509.0
168 553.0 360.0
169 493.0 68.0
170 253.0 386.0
171 359.0 564.0
172 461.0 228.0
173 110.0 312.0
174 247.0 523.0
175 396.0 167.0
176 263.0 275.0
177 227.0 24.0
178 178.0 443.0
179 310.0 50.0
180 458.0 134.0
181 565.0 202.0
182 148.0 240.0
183 189.0 57.0
184 160.0 567.0
185 194.0 424.0
186 153.0 142.0
187 105.0 265.0
188 185.0 587.0
189 139.0 234.0
190 197.0 129.0
191 57.0 280.0
192 505.0 384.0
193 129.0 7.0
194 87.0 584.0
195 65.0 589.0
196 551.0 294.0
197 303.0 266.0
198 549.0 577.0
199 394.0 34.0
200 279.0 454.0
201 430.0 337.0
202 141.0 34.0
203 218.0 356.0
204 38.0 95.0
205 163.0 89.0
206 457.0 439.0
207 423.0 150.0
208 590.0 37.0
209 379.0 561.0
210 171.0 31.0
211 442.0 220.0
212 30.0 226.0
213 268.0 158.0
214 293.0 584.0
215 160.0 422.0
216 10.0 269.0
217 302.0 266.0
218 123.0 429.0
219 540.0 469.0
220 434.0 38.0
221 463.0 348.0
222 1.0 376.0
223 392.0 375.0
224 322.0 63.0
225 355.0 377.0
226 376.0 148.0
227 200.0 285.0
228 415.0 81.0
229 383.0 544.0
230 475.0 259.0
231 120.0 71.0
232 51.0 557.0
233 555.0 43.0
234 206.0 365.0
235 484.0 38.0
236 461.0 314.0
237 283.0 139.0
238 43.0 154.0
239 178.0 287.0
240 70.0 329.0
241 470.0 15.0
242 424.0 14.0
243 26.0 480.0
244 518.0 340.0
245 589.0 472.0
246 122.0 590.0
247 290.0 24.0
248 517.0 230.0
249 170.0 257.0
250 65.0 548.0
251 508.0 33.0
252 379.0 473.0
253 278.0 427.0
254 305.0 151.0
255 403.0 211.0
256 236.0 381.0
257 389.0 75.0
258 476.0 208.0
259 302.0 233.0
260 449.0 34.0
261 499.0 306.0
262 521.0 582.0
263 189.0 433.0
264 196.0 285.0
265 229.0 310.0
266 330.0 100.0
267 485.0 195.0
268 239.0 542.0
269 561.0 78.0
270 511.0 181.0
271 128.0 6.0
272 348.0 134.0
273 385.0 24.0
274 16.0 193.0
275 95.0 488.0
276 272.0 81.0
277 469.0 27.0
278 79.0 142.0
279 37.0 267.0
280 126.0 183.0
281 133.0 372.0
282 314.0 194.0
283 302.0 66.0
284 278.0 279.0
285 553.0 64.0
286 7.0 547.0
287 216.0 369.0
288 21.0 430.0
289 192.0 327.0
290 243.0 419.0
291 8.0 63.0
292 485.0 202.0
293 368.0 356.0
294 321.0 271.0
295 319.0 60.0
296 477.0 160.0
297 554.0 54.0
298 33.0 177.0
299 36.0 77.0
300 86.0 466.0
301 232.0 489.0
302 533.0 409.0
303 266.0 116.0
304 65.0 549.0
305 123.0 428.0
306 500.0 231.0
307 76.0 554.0
308 437.0 503.0
309 443.0 225.0
310 159.0 303.0
311 252.0 83.0
312 427.0 337.0
313 322.0 244.0
314 559.0 179.0
315 456.0 293.0
316 151.0 104.0
317 42.0 220.0
318 260.0 177.0
319 318.0 437.0
320 37.0 439.0
321 96.0 27.0
322 222.0 314.0
323 3.0 59.0
324 257.0 363.0
325 67.0 567.0
326 490.0 20.0
327 275.0 253.0
328 403.0 371.0
329 187.0 128.0
330 476.0 386.0
331 551.0 460.0
332 258.0 125.0
333 154.0 548.0
334 176.0 258.0
335 117.0 555.0
336 226.0 400.0
337 121.0 544.0
338 169.0 219.0
339 190.0 86.0
340 491.0 493.0
341 25.0 552.0
342 110.0 134.0
343 61.0 541.0
344 55.0 384.0
345 517.0 336.0
346 20.0 427.0
347 32.0 223.0
348 553.0 165.0
349 267.0 474.0
350 179.0 63.0
351 344.0 324.0
352 346.0 77.0
353 9.0 527.0
354 434.0 465.0
355 506.0 579.0
356 273.0 470.0
357 119.0 519.0
358 513.0 369.0
359 253.0 387.0
360 39.0 509.0
361 271.0 357.0
362 401.0 91.0
363 102.0 544.0
364 374.0 440.0
365 285.0 387.0
366 406.0 29.0
367 378.0 564.0
368 193.0 21.0
369 334.0 46.0
370 137.0 355.0
371 70.0 157.0
372 510.0 319.0
373 29.0 447.0
374 94.0 254.0
375 45.0 2.0
376 269.0 386.0
377 356.0 527.0
378 224.0 81.0
379 570.0 109.0
380 288.0 100.0
381 129.0 152.0
382 281.0 287.0
383 214.0 34.0
384 519.0 182.0
385 185.0 459.0
386 190.0 453.0
387 36.0 439.0
388 280.0 304.0
389 260.0 151.0
390 229.0 134.0
391 398.0 504.0
392 512.0 432.0
393 348.0 479.0
394 426.0 320.0
395 568.0 37.0
396 456.0 137.0
397 63.0 91.0
398 149.0 474.0
399 562.0 17.0
400 219.0 175.0
401 535.0 41.0
402 433.0 179.0
403 373.0 62.0
404 493.0 153.0
405 300.0 494.0
406 257.0 450.0
407 117.0 571.0
408 140.0 464.0
409 64.0 183.0
410 73.0 149.0
411 250.0 478.0
412 294.0 102.0
413 348.0 506.0
414 539.0 106.0
415 257.0 229.0
416 532.0 433.0
417 212.0 304.0
418 217.0 265.0
419 165.0 119.0
420 227.0 45.0
421 261.0 16.0
422 327.0 568.0
423 581.0 359.0
424 212.0 193.0
425 153.0 272.0
426 125.0 71.0
427 357.0 471.0
428 38.0 491.0
429 479.0 95.0
430 8.0 308.0
431 183.0 489.0
432 91.0 79.0
433 438.0 339.0
434 33.0 381.0
435 141.0 58.0
436 43.0 289.0
437 540.0 517.0
438 590.0 227.0
439 288.0 474.0
440 94.0 528.0
441 328.0 15.0
442 65.0 532.0
443 477.0 372.0
444 307.0 343.0
445 523.0 106.0
446 318.0 267.0
447 36.0 472.0
448 529.0 557.0
449 87.0 105.0
450 17.0 443.0
451 414.0 90.0
452 194.0 87.0
453 435.0 372.0
454 227.0 136.0
455 562.0 367.0
456 519.0 400.0
457 217.0 541.0
458 75.0 171.0
459 483.0 164.0
460 466.0 197.0
461 93.0 442.0
462 196.0 560.0
463 382.0 323.0
464 277.0 520.0
465 322.0 30.0
466 25.0 395.0
467 417.0 278.0
468 138.0 197.0
469 122.0 221.0
470 274.0 101.0
471 309.0 488.0
472 380.0 206.0
473 290.0 282.0
474 543.0 18.0
475 90.0 505.0
476 462.0 66.0
477 109.0 430.0
478 571.0 65.0
479 167.0 130.0
480 21.0 472.0
481 76.0 565.0
482 207.0 61.0
483 393.0 207.0
484 125.0 531.0
485 11.0 196.0
486 322.0 376.0
487 63.0 574.0
488 389.0 503.0
489 293.0 120.0
490 189.0 380.0
491 373.0 98.0
492 213.0 571.0
493 245.0 118.0
494 140.0 564.0
495 503.0 585.0
496 398.0 487.0
497 137.0 536.0
498 530.0 269.0
499 236.0 93.0
500 551.0 471.0
501 149.0 152.0
502 97.0 589.0
503 519.0 78.0
504 588.0 259.0
505 258.0 526.0
506 482.0 195.0
507 67.0 448.0
508 240.0 537.0
509 504.0 461.0
510 580.0 216.0
511 184.0 319.0
512 436.0 300.0
513 218.0 520.0
514 402.0 399.0
515 157.0 145.0
516 462.0 170.0
517 471.0 70.0
518 483.0 574.0
519 215.0 111.0
520 246.0 287.0
521 503.0 81.0
522 416.0 356.0
523 286.0 285.0
524 16.0 481.0
525 559.0 204.0
526 443.0 135.0
527 74.0 168.0
528 259.0 523.0
529 254.0 106.0
530 399.0 162.0
531 509.0 567.0
532 527.0 218.0
533 404.0 174.0
534 163.0 159.0
535 349.0 402.0
536 81.0 189.0
537 50.0 461.0
538 305.0 173.0
539 150.0 4.0
540 296.0 217.0
541 140.0 2.0
542 152.0 279.0
543 220.0 110.0
544 330.0 118.0
545 204.0 499.0
546 403.0 538.0
547 20.0 372.0
548 221.0 566.0
549 314.0 144.0
550 551.0 120.0
551 463.0 509.0
552 305.0 339.0
553 50.0 33.0
554 178.0 46.0
555 168.0 330.0
556 459.0 496.0
557 516.0 388.0
558 108.0 387.0
559 141.0 431.0
560 328.0 436.0
561 115.0 485.0
562 300.0 95.0
563 371.0 202.0
564 169.0 68.0
565 298.0 7.0
566 16.0 244.0
567 79.0 65.0
568 352.0 18.0
569 7.0 49.0
570 568.0 219.0
571 174.0 41.0
572 364.0 512.0
573 536.0 180.0
574 344.0 40.0
575 526.0 71.0
576 493.0 58.0
577 152.0 127.0
578 57.0 296.0
579 346.0 228.0
580 340.0 296.0
581 491.0 505.0
582 431.0 54.0
583 475.0 302.0
584 495.0 532.0
585 278.0 365.0
586 55.0 443.0
587 508.0 496.0
588 259.0 513.0
589 296.0 423.0
590 264.0 470.0
EOF





